/*********************************************
 * OPL 12.6.0.0 Data
 * Author: Adrian Rodriguez Bazaga, Pau Rodriguez Esmerats
 * Creation Date: 06/12/2017 at 23:02:59
 *********************************************/

nNurses=190;
maxConsec=2;
maxPresence=7;
maxHours=5;
minHours=1;
hours=24;
demand= [28 26 51 49 26 51 49 28 39 23 5 3 5 5 7 3 3 3 2 2 20 45 27 34  ];
